c WARNING: for repeatability, setting FPU to use double precision
d VARIABLES            204126       
d CONSTRAINTS          928498       
c ============================[ Problem Statistics ]=============================
c |                                                                             |
c |  Number of variables:        204126                                         |
c |  Number of clauses:          928498                                         |
c |  Parse time:                   0.15 s                                       |
c |                                                                             |
c ============================[ Search Statistics ]==============================
c | Conflicts |          ORIGINAL         |          LEARNT          | Progress |
c |           |    Vars  Clauses Literals |    Limit  Clauses Lit/Cl |          |
c ===============================================================================
c |       100 |  178953   856618  2071882 |   314093      100     61 | 12.332 % |
c |       250 |  178953   856618  2071882 |   345502      250     63 | 12.332 % |
c |       475 |  178953   856618  2071882 |   380052      475     87 | 12.332 % |
c |       812 |  178953   856618  2071882 |   418058      812    100 | 12.332 % |
c |      1318 |  178953   856618  2071882 |   459863     1318    115 | 12.332 % |
c |      2077 |  178953   856618  2071882 |   505850     2077    107 | 12.332 % |
c |      3216 |  178953   856618  2071882 |   556435     3216    117 | 12.332 % |
c |      4924 |  178953   856618  2071882 |   612078     4924    112 | 12.332 % |
c |      7486 |  178953   856618  2071882 |   673286     7486    148 | 12.332 % |
c |     11330 |  178953   856618  2071882 |   740615    11330    156 | 12.332 % |
c |     17096 |  178953   856618  2071882 |   814677    17096    171 | 12.332 % |
c ===============================================================================
c restarts              : 69
c conflicts             : 19959          (1974 /sec)
c decisions             : 163227         (0.00 % random) (16147 /sec)
c propagations          : 48667938       (4814493 /sec)
c conflict literals     : 3497494        (7.38 % deleted)
d RESTARTS             69
d FAILURES             19959        
d NODES                163227       
d BACKTRACKS           163227       
d PROPAGATIONS         48667938     
d NOGOODSIZE           175.23 
d MEMORY               87.00 
d TIME                 10.1086 

s SATISFIABLE
